JOBS = 1..4;
MACHINES = 1..3;
SPEED = 5;
time = array3d(JOBS,MACHINES,1..SPEED,[258,89,63,52,46,80,27,19,16,14,226,78,55,46,40,129,44,31,26,23,130,45,32,26,23,118,40,28,24,21,153,53,37,31,27,252,87,61,51,45,101,34,24,20,18,179,61,43,36,32,184,63,45,37,33,176,60,43,35,31]);
energy = array3d(JOBS,MACHINES,1..SPEED,[7,41,53,59,63,44,76,82,85,86,10,45,57,63,67,27,64,73,77,79,27,63,72,77,79,30,67,75,78,81,21,58,69,73,76,8,41,54,60,63,36,71,78,81,83,16,54,65,69,72,15,53,63,69,71,17,54,65,70,73]);
precedence = array2d(JOBS,MACHINES,[0,1,2,0,2,1,2,1,0,2,1,0]);
ME = 1;
TE = 104;
st_old = array2d(JOBS,MACHINES,[0,106,262,63,273,144,286,186,43,107,43,0]);
SpeedScaling = array2d(JOBS,MACHINES,[3,1,2,2,2,1,2,2,1,1,2,3]);
